# stolennodes thread0 thread1 thread2 thread3 thread4 thread5 thread6 thread7
0 0 0 0 0 0 0 0 0
15 0 0 0 0 0 0 0 0
30 0 0 0 0 0 0 0 0
45 0 0 0 0 0 0 0 0
60 0 0 0 0 0 0 0 0
75 0 0 0 0 0 0 0 0
90 0 0 0 0 0 0 0 0
105 0 0 0 0 0 0 0 0
120 0 0 0 0 0 0 0 0
135 0 0 0 0 0 0 0 0
150 0 0 0 0 0 0 0 0
165 0 0 0 0 0 0 0 0
180 0 0 0 0 0 0 0 0
195 0 0 0 0 0 0 0 0
210 0 0 0 0 0 0 0 0
225 0 0 0 0 0 0 0 0
240 0 0 0 0 0 0 0 0
255 0 0 0 0 0 0 0 0
270 0 0 0 0 0 0 0 0
285 0 0 0 0 0 0 0 0
300 0 0 0 0 0 0 0 0
315 0 0 0 0 0 0 0 0
330 0 0 0 0 0 0 0 0
345 0 0 0 0 0 0 0 0
360 0 0 0 0 0 0 0 0
375 0 0 0 0 0 0 0 0
390 0 0 0 0 0 0 0 0
405 0 0 0 0 0 0 0 0
420 0 0 0 0 0 0 0 0
435 0 0 0 0 0 0 0 0
450 0 0 0 0 0 0 0 0
465 0 0 0 0 0 0 0 0
480 0 0 0 0 0 0 0 0
495 0 0 0 0 0 0 0 0
510 0 0 0 0 0 0 0 0
525 0 0 0 0 0 0 0 0
540 0 0 0 0 0 0 0 0
555 0 0 0 0 0 0 0 0
570 0 0 0 0 0 0 0 0
585 0 0 0 0 0 0 0 0
600 0 0 0 0 0 0 0 0
615 0 0 0 0 0 0 0 0
630 0 0 0 0 0 0 0 0
645 0 0 0 0 0 0 0 0
660 0 0 0 0 0 0 0 0
675 0 0 0 0 0 0 0 0
690 0 0 0 0 0 0 0 0
705 0 0 0 0 0 0 0 0
720 0 0 0 0 0 0 0 0
735 0 0 0 0 0 0 0 0
750 0 0 0 0 0 0 0 0
765 0 0 0 0 0 0 0 0
780 0 0 0 0 0 0 0 0
795 0 0 0 0 0 0 0 0
810 0 0 0 0 0 0 0 0
825 0 0 0 0 0 0 0 0
840 0 0 0 0 0 0 0 0
855 0 0 0 0 0 0 0 0
870 0 0 0 0 0 0 0 0
885 0 0 0 0 0 0 0 0
900 0 0 0 0 0 0 0 0
915 0 0 0 0 0 0 0 0
930 0 0 0 0 0 0 0 0
945 0 0 0 0 0 0 0 0
960 0 0 0 0 0 0 0 0
975 0 0 0 0 0 0 0 0
990 0 0 0 0 0 0 0 0
1005 0 0 0 0 0 0 0 0
1020 0 0 0 0 0 0 0 0
1035 0 0 0 0 0 0 0 0
1050 0 0 0 0 0 0 0 0
1065 0 0 0 0 0 0 0 0
1080 0 0 0 0 0 0 0 0
1095 0 0 0 0 0 0 0 0
1110 0 0 0 0 0 0 0 0
1125 0 0 0 0 0 0 0 0
1140 0 0 0 0 0 0 0 0
1155 0 0 0 0 0 0 0 0
1170 0 0 0 0 0 0 0 0
1185 0 0 0 0 0 0 0 0
1200 0 0 0 0 0 0 0 0
1215 0 0 0 0 0 0 0 0
1230 0 0 0 0 0 0 0 0
1245 0 0 0 0 0 0 0 0
1260 0 0 0 0 0 0 0 0
1275 0 0 0 0 0 0 0 0
1290 0 0 0 0 0 0 0 0
1305 0 0 0 0 0 0 0 0
1320 0 0 0 0 0 0 0 0
1335 0 0 0 0 0 0 0 0
1350 0 0 0 0 0 0 0 0
1365 0 0 0 0 0 0 0 0
1380 0 0 0 0 0 0 0 0
1395 0 0 0 0 0 0 0 0
1410 0 0 0 0 0 0 0 0
1425 0 0 0 0 0 0 0 0
1440 0 0 0 0 0 0 0 0
1455 0 0 0 0 0 0 0 0
1470 0 0 0 0 0 0 0 75
1485 0 0 0 0 0 0 0 32
1500 0 0 0 0 0 0 0 29
1515 0 0 0 0 0 0 0 29
1530 0 0 0 0 0 0 0 32
1545 0 0 0 0 0 0 0 3
1560 0 0 0 0 0 0 0 3
1575 0 0 0 0 0 0 0 3
1590 0 0 0 0 0 0 0 3
1605 0 0 0 0 0 0 0 4
1620 0 0 0 0 0 0 0 3
1635 0 0 0 0 0 0 0 4
1650 0 0 0 0 0 0 0 4
1665 0 0 0 0 0 0 0 3
1680 0 0 0 0 0 0 0 3
1695 0 0 0 0 0 0 0 6
1710 0 0 0 0 0 0 0 2
1725 0 0 0 0 0 0 0 2
1740 0 0 0 0 0 0 0 5
1755 0 0 0 0 0 0 0 2
1770 190 0 0 0 0 0 0 53
1785 28 0 0 0 0 0 0 28
1800 20 0 0 0 0 0 0 17
1815 5 0 0 0 0 0 0 7
1830 6 0 0 0 0 0 0 2
1845 2 0 0 0 0 0 0 1
1860 1 0 0 0 0 0 0 4
1875 5 0 0 0 0 0 0 1
1890 3 0 0 68 0 0 0 3
1905 1 0 0 47 0 0 365 2
1920 2 0 0 31 0 0 0 3
1935 14 87 0 22 0 0 15 14
1950 5 77 0 3 0 0 3 3
1965 3 32 0 4 0 0 1 2
1980 3 26 0 1 0 0 2 5
1995 264 43 20 51 0 0 3 23
